NAME : 3.83583.tour
COMMENT : Length = 83583
COMMENT : Found by LKH-3 [Keld Helsgaun] Thu Jun 19 18:16:00 2025
TYPE : TOUR
DIMENSION : 100
TOUR_SECTION
1
56
72
9
41
33
96
20
39
3
13
47
30
68
75
65
38
40
51
2
97
31
52
88
29
66
54
99
7
85
12
64
15
70
45
19
35
62
87
86
36
6
27
5
76
57
93
28
90
98
44
17
24
43
94
60
37
16
63
58
80
23
59
10
18
26
11
8
79
55
4
21
74
34
73
67
91
53
82
100
89
48
46
77
71
22
49
50
69
42
14
61
32
81
84
25
78
92
83
95
-1
EOF
